unsat
(:added-eqs                       2961374
 :arith-eq-adapter                4233
 :arith-bound-propagations-lp     4791
 :arith-branch                    9
 :arith-conflicts                 8808
 :arith-cube-calls                7
 :arith-diseq                     75688
 :arith-fixed-eqs                 252016
 :arith-gcd-calls                 223
 :arith-gomory-cuts               8
 :arith-grobner-calls             856
 :arith-grobner-conflicts         319
 :arith-horner-calls              211
 :arith-horner-conflicts          36
 :arith-horner-cross-nested-forms 67144
 :arith-lower                     797610
 :arith-make-feasible             170294
 :arith-max-columns               7032
 :arith-max-rows                  2722
 :arith-nla-add-bounds            358
 :arith-nla-lemmas                3886
 :arith-nla-propagate-bounds      3766
 :arith-nla-propagate-eq          263838
 :arith-nra-calls                 155
 :arith-offset-eqs                1009708
 :arith-patches                   223
 :arith-patches-success           208
 :arith-upper                     1219490
 :binary-propagations             3427217
 :cnf-encoding-aux-vars           83
 :conflicts                       3779
 :decisions                       2112052
 :del-clause                      10328
 :elim-unconstrained              1416
 :final-checks                    2004
 :max-memory                      152.58
 :memory                          100.58
 :minimized-lits                  2363
 :mk-bool-var                     26000
 :mk-clause                       16406
 :mk-clause-binary                97426
 :nlsat-conflicts                 81697
 :nlsat-decisions                 654222
 :nlsat-propagations              3982064
 :nlsat-restarts                  3
 :nlsat-stages                    1290073
 :num-allocs                      110487717622.00
 :num-checks                      2
 :propagations                    4159611
 :restarts                        30
 :rlimit-count                    59133957
 :sat-mk-clause-2ary              11267
 :sat-mk-clause-nary              16751
 :sat-mk-var                      8092
 :solve-eqs-elim-vars             696
 :solve-eqs-steps                 3684
 :time                            48.46
 :total-time                      48.49)
